HUN,8,6,760
2,3,1,26,0,11,3,10,4,18,5,4
1,28,2,3,0,7,4,13,5,21,3,19
1,27,0,21,2,17,4,25,3,30,5,27
0,9,1,24,2,19,3,26,4,14,5,2
2,15,1,13,0,17,3,22,4,7,5,25
0,8,2,18,1,28,5,18,4,26,3,8
1,10,0,6,2,21,3,1,4,27,5,12
2,26,0,21,1,6,4,23,3,17,5,23
